c File: data_files/evolved_graphs/g0530.col
c
c Auto generated graph
c
p edge 100 2524
e 1 3
e 1 5
e 1 6
e 1 7
e 1 8
e 1 11
e 1 15
e 1 17
e 1 18
e 1 19
e 1 23
e 1 47
e 1 67
e 1 68
e 1 69
e 1 70
e 1 72
e 1 73
e 1 74
e 1 78
e 1 83
e 1 84
e 1 85
e 1 86
e 1 87
e 1 92
e 1 93
e 1 94
e 1 95
e 1 97
e 1 98
e 1 99
e 2 6
e 2 9
e 2 12
e 2 13
e 2 17
e 2 18
e 2 36
e 2 63
e 2 67
e 2 68
e 2 69
e 2 70
e 2 71
e 2 72
e 2 73
e 2 74
e 2 76
e 2 78
e 2 88
e 2 89
e 2 90
e 2 92
e 2 94
e 2 95
e 2 96
e 2 97
e 2 99
e 2 100
e 3 6
e 3 7
e 3 8
e 3 11
e 3 15
e 3 17
e 3 18
e 3 19
e 3 22
e 3 23
e 3 34
e 3 42
e 3 47
e 3 67
e 3 68
e 3 69
e 3 70
e 3 72
e 3 73
e 3 74
e 3 76
e 3 77
e 3 80
e 3 83
e 3 84
e 3 85
e 3 86
e 3 87
e 3 92
e 3 93
e 3 94
e 3 95
e 3 96
e 3 97
e 3 98
e 3 99
e 4 7
e 4 11
e 4 14
e 4 16
e 4 19
e 4 67
e 4 68
e 4 69
e 4 70
e 4 71
e 4 72
e 4 73
e 4 74
e 4 78
e 4 83
e 4 84
e 4 86
e 4 92
e 4 93
e 4 94
e 4 96
e 4 97
e 4 98
e 4 99
e 5 6
e 5 8
e 5 15
e 5 17
e 5 18
e 5 20
e 5 67
e 5 68
e 5 69
e 5 70
e 5 71
e 5 72
e 5 73
e 5 74
e 5 75
e 5 76
e 5 78
e 5 80
e 5 81
e 5 82
e 5 83
e 5 84
e 5 85
e 5 86
e 5 87
e 5 88
e 5 89
e 5 90
e 5 92
e 5 93
e 5 94
e 5 95
e 5 96
e 5 97
e 6 7
e 6 8
e 6 9
e 6 11
e 6 12
e 6 15
e 6 17
e 6 18
e 6 19
e 6 26
e 6 67
e 6 68
e 6 69
e 6 70
e 6 71
e 6 72
e 6 73
e 6 74
e 6 75
e 6 76
e 6 77
e 6 78
e 6 79
e 6 80
e 6 81
e 6 82
e 6 83
e 6 84
e 6 85
e 6 86
e 6 87
e 6 88
e 6 89
e 6 90
e 6 91
e 6 92
e 6 93
e 6 94
e 6 95
e 6 96
e 6 97
e 6 98
e 7 8
e 7 11
e 7 14
e 7 15
e 7 16
e 7 19
e 7 22
e 7 23
e 7 34
e 7 64
e 7 67
e 7 68
e 7 69
e 7 70
e 7 71
e 7 72
e 7 73
e 7 74
e 7 75
e 7 76
e 7 77
e 7 78
e 7 79
e 7 80
e 7 81
e 7 82
e 7 83
e 7 84
e 7 85
e 7 86
e 7 87
e 7 88
e 7 89
e 7 90
e 7 91
e 7 92
e 7 93
e 7 94
e 7 95
e 7 96
e 7 97
e 8 11
e 8 12
e 8 15
e 8 17
e 8 18
e 8 19
e 8 35
e 8 39
e 8 50
e 8 61
e 8 67
e 8 68
e 8 69
e 8 70
e 8 71
e 8 72
e 8 73
e 8 74
e 8 75
e 8 76
e 8 77
e 8 78
e 8 79
e 8 80
e 8 81
e 8 82
e 8 83
e 8 84
e 8 85
e 8 86
e 8 87
e 8 88
e 8 89
e 8 90
e 8 91
e 8 92
e 8 93
e 8 94
e 8 95
e 8 96
e 8 97
e 8 99
e 8 100
e 9 12
e 9 13
e 9 17
e 9 18
e 9 35
e 9 39
e 9 50
e 9 57
e 9 61
e 9 67
e 9 68
e 9 69
e 9 70
e 9 71
e 9 72
e 9 73
e 9 74
e 9 76
e 9 78
e 9 80
e 9 81
e 9 82
e 9 83
e 9 84
e 9 85
e 9 86
e 9 87
e 9 89
e 9 92
e 9 93
e 9 94
e 9 95
e 9 96
e 9 97
e 9 99
e 9 100
e 10 12
e 10 67
e 10 68
e 10 69
e 10 70
e 10 71
e 10 72
e 10 73
e 10 74
e 10 76
e 10 78
e 10 80
e 10 82
e 10 83
e 10 84
e 10 85
e 10 86
e 10 87
e 10 88
e 10 89
e 10 90
e 10 91
e 10 92
e 10 95
e 10 96
e 10 97
e 10 99
e 10 100
e 11 12
e 11 14
e 11 16
e 11 19
e 11 38
e 11 55
e 11 67
e 11 68
e 11 69
e 11 70
e 11 71
e 11 72
e 11 73
e 11 74
e 11 75
e 11 76
e 11 77
e 11 78
e 11 79
e 11 80
e 11 81
e 11 82
e 11 83
e 11 84
e 11 85
e 11 86
e 11 87
e 11 88
e 11 89
e 11 90
e 11 91
e 11 92
e 11 93
e 11 94
e 11 95
e 11 96
e 11 97
e 12 13
e 12 17
e 12 22
e 12 23
e 12 34
e 12 47
e 12 67
e 12 68
e 12 69
e 12 70
e 12 71
e 12 72
e 12 73
e 12 74
e 12 75
e 12 76
e 12 77
e 12 78
e 12 79
e 12 80
e 12 81
e 12 82
e 12 83
e 12 84
e 12 85
e 12 86
e 12 87
e 12 88
e 12 89
e 12 90
e 12 91
e 12 92
e 12 93
e 12 94
e 12 95
e 12 96
e 12 97
e 13 17
e 13 60
e 13 67
e 13 68
e 13 70
e 13 71
e 13 72
e 13 73
e 13 75
e 13 76
e 13 77
e 13 78
e 13 79
e 13 80
e 13 81
e 13 82
e 13 84
e 13 85
e 13 86
e 13 87
e 13 88
e 13 89
e 13 90
e 13 91
e 13 92
e 13 93
e 13 94
e 13 95
e 13 96
e 13 97
e 14 16
e 14 19
e 14 52
e 14 67
e 14 68
e 14 69
e 14 70
e 14 71
e 14 72
e 14 73
e 14 74
e 14 75
e 14 76
e 14 77
e 14 79
e 14 80
e 14 81
e 14 85
e 14 86
e 14 87
e 14 88
e 14 89
e 14 91
e 14 92
e 14 93
e 14 94
e 14 95
e 14 99
e 14 100
e 15 17
e 15 18
e 15 67
e 15 68
e 15 69
e 15 70
e 15 72
e 15 73
e 15 74
e 15 75
e 15 76
e 15 77
e 15 78
e 15 79
e 15 80
e 15 81
e 15 82
e 15 83
e 15 84
e 15 85
e 15 86
e 15 87
e 15 88
e 15 89
e 15 90
e 15 91
e 15 92
e 15 93
e 15 94
e 15 95
e 15 96
e 15 97
e 15 99
e 15 100
e 16 19
e 16 67
e 16 68
e 16 69
e 16 70
e 16 71
e 16 72
e 16 73
e 16 74
e 16 75
e 16 76
e 16 77
e 16 78
e 16 79
e 16 80
e 16 81
e 16 85
e 16 86
e 16 87
e 16 88
e 16 89
e 16 90
e 16 91
e 16 92
e 16 93
e 16 94
e 16 95
e 16 96
e 17 18
e 17 68
e 17 70
e 17 72
e 17 73
e 17 74
e 17 75
e 17 76
e 17 77
e 17 78
e 17 79
e 17 80
e 17 81
e 17 82
e 17 83
e 17 84
e 17 85
e 17 86
e 17 87
e 17 88
e 17 89
e 17 90
e 17 91
e 17 92
e 17 93
e 17 94
e 17 95
e 17 96
e 17 97
e 17 99
e 17 100
e 18 43
e 18 67
e 18 68
e 18 69
e 18 70
e 18 71
e 18 72
e 18 73
e 18 74
e 18 75
e 18 76
e 18 77
e 18 78
e 18 79
e 18 80
e 18 81
e 18 82
e 18 83
e 18 84
e 18 85
e 18 86
e 18 87
e 18 88
e 18 89
e 18 90
e 18 91
e 18 92
e 18 93
e 18 94
e 18 95
e 18 96
e 18 97
e 19 44
e 19 67
e 19 68
e 19 69
e 19 70
e 19 71
e 19 72
e 19 73
e 19 74
e 19 75
e 19 76
e 19 78
e 19 79
e 19 80
e 19 82
e 19 83
e 19 84
e 19 85
e 19 86
e 19 87
e 19 88
e 19 89
e 19 90
e 19 91
e 19 92
e 19 93
e 19 95
e 19 96
e 19 97
e 19 99
e 19 100
e 20 21
e 20 25
e 20 28
e 20 29
e 20 30
e 20 31
e 20 33
e 20 34
e 20 35
e 20 37
e 20 38
e 20 39
e 20 42
e 20 44
e 20 47
e 20 48
e 20 49
e 20 51
e 20 52
e 20 53
e 20 55
e 20 56
e 20 60
e 20 62
e 20 64
e 20 67
e 20 68
e 20 70
e 20 72
e 20 74
e 20 75
e 20 76
e 20 77
e 20 78
e 20 79
e 20 80
e 20 81
e 20 82
e 20 84
e 20 85
e 20 86
e 20 87
e 20 88
e 20 89
e 20 91
e 20 92
e 20 93
e 20 94
e 20 95
e 20 96
e 20 97
e 21 24
e 21 25
e 21 26
e 21 27
e 21 28
e 21 29
e 21 30
e 21 31
e 21 33
e 21 34
e 21 36
e 21 37
e 21 38
e 21 41
e 21 42
e 21 44
e 21 45
e 21 47
e 21 48
e 21 50
e 21 51
e 21 53
e 21 54
e 21 55
e 21 56
e 21 58
e 21 59
e 21 61
e 21 62
e 21 63
e 21 64
e 21 65
e 21 67
e 21 68
e 21 69
e 21 70
e 21 71
e 21 74
e 21 75
e 21 76
e 21 77
e 21 78
e 21 79
e 21 80
e 21 81
e 21 82
e 21 83
e 21 84
e 21 85
e 21 86
e 21 87
e 21 88
e 21 89
e 21 90
e 21 91
e 21 92
e 21 93
e 21 94
e 21 95
e 21 96
e 21 97
e 21 99
e 21 100
e 22 26
e 22 27
e 22 31
e 22 40
e 22 41
e 22 42
e 22 45
e 22 50
e 22 54
e 22 56
e 22 58
e 22 59
e 22 63
e 22 65
e 22 66
e 22 69
e 22 71
e 22 76
e 22 78
e 22 80
e 22 81
e 22 82
e 22 83
e 22 84
e 22 85
e 22 86
e 22 87
e 22 89
e 22 92
e 22 93
e 22 94
e 22 95
e 22 96
e 22 97
e 22 99
e 22 100
e 23 24
e 23 29
e 23 30
e 23 32
e 23 34
e 23 41
e 23 43
e 23 46
e 23 50
e 23 54
e 23 57
e 23 60
e 23 73
e 23 75
e 23 76
e 23 77
e 23 78
e 23 79
e 23 80
e 23 81
e 23 82
e 23 83
e 23 84
e 23 85
e 23 86
e 23 87
e 23 88
e 23 89
e 23 90
e 23 91
e 23 92
e 23 93
e 23 94
e 23 95
e 23 96
e 23 97
e 24 26
e 24 27
e 24 29
e 24 30
e 24 32
e 24 33
e 24 34
e 24 37
e 24 38
e 24 41
e 24 43
e 24 45
e 24 46
e 24 48
e 24 50
e 24 54
e 24 56
e 24 57
e 24 60
e 24 62
e 24 65
e 24 67
e 24 68
e 24 70
e 24 71
e 24 72
e 24 73
e 24 74
e 24 75
e 24 76
e 24 77
e 24 78
e 24 79
e 24 80
e 24 81
e 24 82
e 24 83
e 24 84
e 24 85
e 24 86
e 24 87
e 24 88
e 24 89
e 24 90
e 24 91
e 24 92
e 24 93
e 24 94
e 24 95
e 24 96
e 24 97
e 25 28
e 25 30
e 25 31
e 25 33
e 25 36
e 25 37
e 25 38
e 25 42
e 25 44
e 25 47
e 25 48
e 25 50
e 25 51
e 25 52
e 25 53
e 25 55
e 25 56
e 25 58
e 25 61
e 25 62
e 25 63
e 25 64
e 25 65
e 25 67
e 25 68
e 25 69
e 25 70
e 25 74
e 25 75
e 25 76
e 25 77
e 25 78
e 25 79
e 25 80
e 25 81
e 25 82
e 25 83
e 25 84
e 25 85
e 25 86
e 25 87
e 25 88
e 25 89
e 25 90
e 25 91
e 25 92
e 25 93
e 25 94
e 25 95
e 25 96
e 25 97
e 26 27
e 26 30
e 26 34
e 26 38
e 26 40
e 26 41
e 26 43
e 26 45
e 26 46
e 26 50
e 26 54
e 26 56
e 26 57
e 26 58
e 26 59
e 26 62
e 26 63
e 26 65
e 26 66
e 26 69
e 26 71
e 26 74
e 26 75
e 26 76
e 26 77
e 26 79
e 26 80
e 26 81
e 26 82
e 26 84
e 26 85
e 26 86
e 26 87
e 26 88
e 26 89
e 26 90
e 26 91
e 26 92
e 26 93
e 26 94
e 26 95
e 26 96
e 26 99
e 27 30
e 27 31
e 27 33
e 27 34
e 27 38
e 27 40
e 27 41
e 27 42
e 27 43
e 27 45
e 27 46
e 27 50
e 27 54
e 27 56
e 27 57
e 27 58
e 27 59
e 27 62
e 27 63
e 27 65
e 27 66
e 27 69
e 27 70
e 27 71
e 27 74
e 27 75
e 27 76
e 27 77
e 27 78
e 27 79
e 27 80
e 27 81
e 27 82
e 27 83
e 27 84
e 27 85
e 27 86
e 27 87
e 27 88
e 27 89
e 27 90
e 27 92
e 27 93
e 27 94
e 27 95
e 27 96
e 27 97
e 28 31
e 28 33
e 28 36
e 28 37
e 28 38
e 28 42
e 28 44
e 28 47
e 28 48
e 28 51
e 28 52
e 28 53
e 28 55
e 28 61
e 28 62
e 28 63
e 28 68
e 28 69
e 28 70
e 28 74
e 28 75
e 28 76
e 28 77
e 28 78
e 28 79
e 28 80
e 28 81
e 28 82
e 28 83
e 28 84
e 28 85
e 28 86
e 28 87
e 28 88
e 28 89
e 28 90
e 28 91
e 28 92
e 28 93
e 28 94
e 28 95
e 28 96
e 28 97
e 29 30
e 29 32
e 29 33
e 29 34
e 29 35
e 29 37
e 29 38
e 29 39
e 29 43
e 29 48
e 29 49
e 29 50
e 29 57
e 29 60
e 29 62
e 29 64
e 29 67
e 29 68
e 29 70
e 29 72
e 29 73
e 29 74
e 29 75
e 29 76
e 29 77
e 29 78
e 29 79
e 29 80
e 29 81
e 29 82
e 29 83
e 29 84
e 29 85
e 29 86
e 29 87
e 29 88
e 29 89
e 29 90
e 29 91
e 29 92
e 29 93
e 29 94
e 29 95
e 29 96
e 29 97
e 29 99
e 29 100
e 30 31
e 30 33
e 30 34
e 30 37
e 30 38
e 30 41
e 30 42
e 30 43
e 30 45
e 30 46
e 30 48
e 30 50
e 30 51
e 30 54
e 30 56
e 30 57
e 30 59
e 30 60
e 30 62
e 30 63
e 30 65
e 30 67
e 30 68
e 30 69
e 30 70
e 30 71
e 30 72
e 30 73
e 30 74
e 30 75
e 30 76
e 30 77
e 30 78
e 30 79
e 30 80
e 30 81
e 30 82
e 30 85
e 30 86
e 30 87
e 30 88
e 30 89
e 30 91
e 30 92
e 30 93
e 30 94
e 30 95
e 30 96
e 31 33
e 31 36
e 31 37
e 31 38
e 31 40
e 31 41
e 31 42
e 31 45
e 31 47
e 31 48
e 31 50
e 31 51
e 31 52
e 31 53
e 31 55
e 31 56
e 31 58
e 31 59
e 31 61
e 31 62
e 31 63
e 31 65
e 31 68
e 31 69
e 31 70
e 31 71
e 31 74
e 31 75
e 31 76
e 31 78
e 31 80
e 31 81
e 31 82
e 31 83
e 31 84
e 31 85
e 31 86
e 31 87
e 31 88
e 31 89
e 31 92
e 31 93
e 31 94
e 31 95
e 31 96
e 31 97
e 32 34
e 32 43
e 32 46
e 32 54
e 32 57
e 32 60
e 32 73
e 32 75
e 32 76
e 32 77
e 32 78
e 32 79
e 32 80
e 32 81
e 32 82
e 32 83
e 32 84
e 32 85
e 32 86
e 32 87
e 32 88
e 32 89
e 32 90
e 32 91
e 32 92
e 32 93
e 32 94
e 32 95
e 32 96
e 32 97
e 32 99
e 32 100
e 33 34
e 33 36
e 33 37
e 33 38
e 33 41
e 33 42
e 33 44
e 33 45
e 33 47
e 33 48
e 33 50
e 33 51
e 33 52
e 33 53
e 33 55
e 33 56
e 33 58
e 33 61
e 33 62
e 33 63
e 33 64
e 33 65
e 33 67
e 33 68
e 33 69
e 33 70
e 33 72
e 33 74
e 33 76
e 33 78
e 33 80
e 33 81
e 33 82
e 33 83
e 33 84
e 33 85
e 33 86
e 33 87
e 33 89
e 33 92
e 33 93
e 33 94
e 33 95
e 33 96
e 33 97
e 34 37
e 34 38
e 34 41
e 34 43
e 34 45
e 34 46
e 34 48
e 34 49
e 34 50
e 34 54
e 34 56
e 34 57
e 34 60
e 34 62
e 34 65
e 34 67
e 34 68
e 34 70
e 34 72
e 34 73
e 34 74
e 34 75
e 34 76
e 34 77
e 34 79
e 34 80
e 34 81
e 34 85
e 34 86
e 34 87
e 34 88
e 34 89
e 34 90
e 34 91
e 34 92
e 34 93
e 34 94
e 34 95
e 34 99
e 34 100
e 35 37
e 35 39
e 35 44
e 35 48
e 35 49
e 35 60
e 35 64
e 35 67
e 35 68
e 35 70
e 35 72
e 35 74
e 35 75
e 35 76
e 35 77
e 35 78
e 35 80
e 35 81
e 35 82
e 35 83
e 35 84
e 35 85
e 35 86
e 35 87
e 35 89
e 35 92
e 35 93
e 35 94
e 35 95
e 35 96
e 35 97
e 35 99
e 36 38
e 36 40
e 36 42
e 36 47
e 36 51
e 36 52
e 36 53
e 36 55
e 36 56
e 36 58
e 36 59
e 36 61
e 36 62
e 36 63
e 36 65
e 36 69
e 36 75
e 36 76
e 36 77
e 36 78
e 36 79
e 36 80
e 36 81
e 36 82
e 36 83
e 36 84
e 36 85
e 36 86
e 36 87
e 36 88
e 36 89
e 36 90
e 36 91
e 36 92
e 36 93
e 36 94
e 36 95
e 36 96
e 36 97
e 36 99
e 36 100
e 37 38
e 37 39
e 37 42
e 37 44
e 37 47
e 37 48
e 37 49
e 37 50
e 37 51
e 37 53
e 37 55
e 37 56
e 37 60
e 37 62
e 37 64
e 37 65
e 37 67
e 37 68
e 37 70
e 37 72
e 37 74
e 37 76
e 37 77
e 37 79
e 37 80
e 37 81
e 37 82
e 37 83
e 37 85
e 37 86
e 37 87
e 37 88
e 37 89
e 37 90
e 37 92
e 37 94
e 37 96
e 37 97
e 38 41
e 38 42
e 38 44
e 38 45
e 38 47
e 38 48
e 38 50
e 38 51
e 38 53
e 38 54
e 38 55
e 38 56
e 38 58
e 38 59
e 38 61
e 38 62
e 38 63
e 38 65
e 38 67
e 38 68
e 38 69
e 38 70
e 38 71
e 38 74
e 38 75
e 38 76
e 38 77
e 38 79
e 38 83
e 38 84
e 38 85
e 38 87
e 38 89
e 38 90
e 38 92
e 38 93
e 39 44
e 39 48
e 39 49
e 39 60
e 39 64
e 39 67
e 39 72
e 39 75
e 39 77
e 39 78
e 39 79
e 39 82
e 39 83
e 39 84
e 39 87
e 39 88
e 39 89
e 39 90
e 39 91
e 39 93
e 39 98
e 39 99
e 40 41
e 40 42
e 40 45
e 40 50
e 40 56
e 40 58
e 40 59
e 40 63
e 40 65
e 40 66
e 40 69
e 40 71
e 40 78
e 40 80
e 40 82
e 40 86
e 40 88
e 40 90
e 40 91
e 40 95
e 40 96
e 40 99
e 40 100
e 41 42
e 41 43
e 41 45
e 41 46
e 41 50
e 41 54
e 41 56
e 41 57
e 41 58
e 41 59
e 41 62
e 41 63
e 41 65
e 41 66
e 41 68
e 41 69
e 41 70
e 41 71
e 41 73
e 41 74
e 41 75
e 41 78
e 41 79
e 41 80
e 41 82
e 41 83
e 41 84
e 41 87
e 41 88
e 41 89
e 41 90
e 41 91
e 41 93
e 41 95
e 41 98
e 41 99
e 42 44
e 42 45
e 42 47
e 42 48
e 42 50
e 42 51
e 42 52
e 42 53
e 42 55
e 42 56
e 42 58
e 42 59
e 42 61
e 42 62
e 42 63
e 42 65
e 42 67
e 42 68
e 42 69
e 42 70
e 42 71
e 42 74
e 42 75
e 42 77
e 42 79
e 42 84
e 42 87
e 42 89
e 42 93
e 43 45
e 43 46
e 43 50
e 43 54
e 43 56
e 43 57
e 43 60
e 43 70
e 43 73
e 43 74
e 43 75
e 43 79
e 43 80
e 43 81
e 43 82
e 43 83
e 43 85
e 43 86
e 43 87
e 43 88
e 43 90
e 43 92
e 43 94
e 43 96
e 43 97
e 43 100
e 44 47
e 44 48
e 44 49
e 44 51
e 44 52
e 44 53
e 44 55
e 44 62
e 44 64
e 44 67
e 44 68
e 44 70
e 44 72
e 44 74
e 44 76
e 44 84
e 44 89
e 44 91
e 44 93
e 44 98
e 44 99
e 45 46
e 45 50
e 45 54
e 45 56
e 45 57
e 45 58
e 45 59
e 45 62
e 45 63
e 45 65
e 45 66
e 45 68
e 45 69
e 45 70
e 45 71
e 45 74
e 45 76
e 45 77
e 45 79
e 45 80
e 45 81
e 45 82
e 45 83
e 45 85
e 45 86
e 45 87
e 45 88
e 45 89
e 45 90
e 45 92
e 45 94
e 45 96
e 45 97
e 46 50
e 46 54
e 46 56
e 46 57
e 46 60
e 46 62
e 46 65
e 46 71
e 46 73
e 46 74
e 46 75
e 46 76
e 46 77
e 46 79
e 46 81
e 46 83
e 46 84
e 46 85
e 46 86
e 46 87
e 46 89
e 46 90
e 46 92
e 46 93
e 46 94
e 46 97
e 47 48
e 47 51
e 47 52
e 47 53
e 47 55
e 47 56
e 47 58
e 47 61
e 47 62
e 47 63
e 47 65
e 47 69
e 47 74
e 47 75
e 47 77
e 47 79
e 47 81
e 47 83
e 47 85
e 47 86
e 47 87
e 47 89
e 47 90
e 47 92
e 47 93
e 47 94
e 47 96
e 47 97
e 48 49
e 48 50
e 48 51
e 48 53
e 48 55
e 48 56
e 48 60
e 48 62
e 48 64
e 48 67
e 48 68
e 48 70
e 48 72
e 48 74
e 48 75
e 48 76
e 48 77
e 48 79
e 48 80
e 48 81
e 48 82
e 48 83
e 48 85
e 48 86
e 48 87
e 48 88
e 48 89
e 48 90
e 48 91
e 48 92
e 48 93
e 48 94
e 48 95
e 48 96
e 48 97
e 48 99
e 49 60
e 49 64
e 49 67
e 49 68
e 49 70
e 49 72
e 49 74
e 49 75
e 49 78
e 49 80
e 49 82
e 49 85
e 49 86
e 49 87
e 49 88
e 49 89
e 49 90
e 49 91
e 49 95
e 49 99
e 49 100
e 50 54
e 50 56
e 50 57
e 50 58
e 50 59
e 50 62
e 50 63
e 50 65
e 50 66
e 50 67
e 50 68
e 50 69
e 50 70
e 50 71
e 50 73
e 50 74
e 50 77
e 50 79
e 50 80
e 50 81
e 50 82
e 50 83
e 50 84
e 50 85
e 50 86
e 50 87
e 50 88
e 50 89
e 50 90
e 50 91
e 50 92
e 50 93
e 50 94
e 50 95
e 50 96
e 50 97
e 50 99
e 51 52
e 51 53
e 51 55
e 51 56
e 51 61
e 51 62
e 51 63
e 51 64
e 51 65
e 51 67
e 51 68
e 51 69
e 51 70
e 51 74
e 51 75
e 51 79
e 51 80
e 51 81
e 51 82
e 51 83
e 51 85
e 51 86
e 51 87
e 51 88
e 51 90
e 51 92
e 51 94
e 51 96
e 51 97
e 51 100
e 52 53
e 52 55
e 52 61
e 52 75
e 52 78
e 52 82
e 52 84
e 52 87
e 52 89
e 52 90
e 52 91
e 52 93
e 52 98
e 52 99
e 53 55
e 53 56
e 53 58
e 53 61
e 53 62
e 53 63
e 53 68
e 53 69
e 53 70
e 53 74
e 53 76
e 53 78
e 53 80
e 53 81
e 53 82
e 53 83
e 53 85
e 53 86
e 53 88
e 53 90
e 53 95
e 53 96
e 53 99
e 53 100
e 54 56
e 54 57
e 54 59
e 54 62
e 54 65
e 54 66
e 54 69
e 54 71
e 54 73
e 54 74
e 54 76
e 54 78
e 54 80
e 54 82
e 54 84
e 54 88
e 54 89
e 54 90
e 54 91
e 54 95
e 54 98
e 54 99
e 55 61
e 55 62
e 55 63
e 55 64
e 55 67
e 55 68
e 55 69
e 55 70
e 55 74
e 55 75
e 55 76
e 55 77
e 55 79
e 55 81
e 55 83
e 55 85
e 55 86
e 55 87
e 55 89
e 55 92
e 55 93
e 55 94
e 55 97
e 56 57
e 56 58
e 56 59
e 56 62
e 56 63
e 56 65
e 56 66
e 56 67
e 56 68
e 56 69
e 56 70
e 56 71
e 56 74
e 56 75
e 56 82
e 56 84
e 56 87
e 56 89
e 56 90
e 56 91
e 56 93
e 56 98
e 56 99
e 57 60
e 57 70
e 57 73
e 57 74
e 57 75
e 57 78
e 57 80
e 57 82
e 57 86
e 57 88
e 57 89
e 57 90
e 57 91
e 57 95
e 57 99
e 57 100
e 58 59
e 58 61
e 58 62
e 58 63
e 58 65
e 58 66
e 58 69
e 58 71
e 58 76
e 58 77
e 58 79
e 58 81
e 58 83
e 58 85
e 58 86
e 58 87
e 58 92
e 58 94
e 58 96
e 58 97
e 59 62
e 59 63
e 59 65
e 59 66
e 59 69
e 59 71
e 59 75
e 59 76
e 59 77
e 59 79
e 59 80
e 59 82
e 59 83
e 59 84
e 59 85
e 59 86
e 59 87
e 59 88
e 59 89
e 59 90
e 59 91
e 59 92
e 59 93
e 59 98
e 59 99
e 60 64
e 60 67
e 60 68
e 60 70
e 60 72
e 60 73
e 60 74
e 60 75
e 60 78
e 60 82
e 60 84
e 60 89
e 60 90
e 60 91
e 60 93
e 60 98
e 60 99
e 61 62
e 61 63
e 61 69
e 61 75
e 61 76
e 61 77
e 61 79
e 61 83
e 61 84
e 61 85
e 61 87
e 61 89
e 61 90
e 61 92
e 61 93
e 62 63
e 62 65
e 62 67
e 62 68
e 62 69
e 62 70
e 62 71
e 62 74
e 62 76
e 62 80
e 62 81
e 62 82
e 62 85
e 62 86
e 62 88
e 62 90
e 62 95
e 62 96
e 62 100
e 63 65
e 63 66
e 63 69
e 63 70
e 63 71
e 63 74
e 63 75
e 63 80
e 63 81
e 63 82
e 63 83
e 63 85
e 63 86
e 63 88
e 63 90
e 63 92
e 63 94
e 63 96
e 63 97
e 63 100
e 64 67
e 64 68
e 64 70
e 64 72
e 64 74
e 64 75
e 64 76
e 64 77
e 64 79
e 64 80
e 64 81
e 64 82
e 64 83
e 64 84
e 64 85
e 64 86
e 64 87
e 64 88
e 64 89
e 64 90
e 64 91
e 64 92
e 64 93
e 64 94
e 64 96
e 64 97
e 64 99
e 65 66
e 65 68
e 65 69
e 65 70
e 65 71
e 65 74
e 65 75
e 65 76
e 65 77
e 65 79
e 65 81
e 65 83
e 65 85
e 65 86
e 65 87
e 65 89
e 65 90
e 65 92
e 65 93
e 65 94
e 65 97
e 66 69
e 66 71
e 66 75
e 66 76
e 66 77
e 66 78
e 66 79
e 66 80
e 66 81
e 66 82
e 66 83
e 66 84
e 66 85
e 66 86
e 66 87
e 66 88
e 66 89
e 66 90
e 66 91
e 66 92
e 66 93
e 66 94
e 66 95
e 66 96
e 66 97
e 66 98
e 66 99
e 66 100
e 67 68
e 67 70
e 67 72
e 67 74
e 67 75
e 67 76
e 67 77
e 67 78
e 67 79
e 67 80
e 67 81
e 67 82
e 67 83
e 67 84
e 67 85
e 67 86
e 67 87
e 67 88
e 67 89
e 67 90
e 67 91
e 67 92
e 67 93
e 67 94
e 67 95
e 67 96
e 67 97
e 67 98
e 67 99
e 67 100
e 68 69
e 68 70
e 68 72
e 68 74
e 68 75
e 68 76
e 68 77
e 68 78
e 68 79
e 68 80
e 68 81
e 68 82
e 68 83
e 68 84
e 68 85
e 68 86
e 68 87
e 68 88
e 68 89
e 68 90
e 68 91
e 68 92
e 68 93
e 68 94
e 68 95
e 68 96
e 68 97
e 68 98
e 68 99
e 68 100
e 69 70
e 69 71
e 69 74
e 69 75
e 69 76
e 69 77
e 69 78
e 69 79
e 69 80
e 69 81
e 69 82
e 69 83
e 69 84
e 69 85
e 69 86
e 69 87
e 69 88
e 69 89
e 69 90
e 69 91
e 69 92
e 69 93
e 69 94
e 69 95
e 69 96
e 69 97
e 69 98
e 69 99
e 69 100
e 70 72
e 70 74
e 70 75
e 70 76
e 70 77
e 70 78
e 70 79
e 70 80
e 70 81
e 70 82
e 70 83
e 70 84
e 70 85
e 70 86
e 70 87
e 70 88
e 70 89
e 70 90
e 70 91
e 70 94
e 70 95
e 70 96
e 70 97
e 70 99
e 70 100
e 71 75
e 71 76
e 71 77
e 71 78
e 71 79
e 71 81
e 71 82
e 71 83
e 71 84
e 71 85
e 71 86
e 71 87
e 71 88
e 71 89
e 71 90
e 71 91
e 71 92
e 71 93
e 71 94
e 71 96
e 71 97
e 71 98
e 71 99
e 71 100
e 72 74
e 72 75
e 72 76
e 72 77
e 72 78
e 72 79
e 72 80
e 72 81
e 72 82
e 72 83
e 72 84
e 72 85
e 72 86
e 72 87
e 72 88
e 72 89
e 72 90
e 72 91
e 72 92
e 72 93
e 72 94
e 72 95
e 72 96
e 72 97
e 72 98
e 72 99
e 72 100
e 73 75
e 73 77
e 73 78
e 73 79
e 73 80
e 73 83
e 73 84
e 73 85
e 73 87
e 73 88
e 73 89
e 73 91
e 73 93
e 73 94
e 73 95
e 73 99
e 73 100
e 74 75
e 74 76
e 74 77
e 74 78
e 74 79
e 74 80
e 74 81
e 74 82
e 74 83
e 74 84
e 74 85
e 74 86
e 74 87
e 74 88
e 74 89
e 74 90
e 74 91
e 74 92
e 74 93
e 74 94
e 74 95
e 74 96
e 74 97
e 74 98
e 74 99
e 74 100
e 75 76
e 75 79
e 75 84
e 75 85
e 75 88
e 75 89
e 75 91
e 75 92
e 75 93
e 75 95
e 75 97
e 75 98
e 75 99
e 76 79
e 76 84
e 76 85
e 76 86
e 76 88
e 76 89
e 76 91
e 76 93
e 76 94
e 76 95
e 76 96
e 76 97
e 76 98
e 76 100
e 77 83
e 77 86
e 77 91
e 77 92
e 77 93
e 77 97
e 77 99
e 77 100
e 78 80
e 78 81
e 78 82
e 78 83
e 78 86
e 78 87
e 78 91
e 78 95
e 78 96
e 78 98
e 79 84
e 79 85
e 79 86
e 79 88
e 79 89
e 79 91
e 79 93
e 79 94
e 79 97
e 79 99
e 79 100
e 80 81
e 80 82
e 80 87
e 80 92
e 80 93
e 80 95
e 80 97
e 80 98
e 80 99
e 80 100
e 81 82
e 81 85
e 81 87
e 81 90
e 81 91
e 81 93
e 81 94
e 81 96
e 81 97
e 81 98
e 81 100
e 82 87
e 82 92
e 82 93
e 82 95
e 82 96
e 82 98
e 83 86
e 83 93
e 83 94
e 83 97
e 83 99
e 83 100
e 84 86
e 84 88
e 84 89
e 84 91
e 84 94
e 84 96
e 84 97
e 85 86
e 85 87
e 85 88
e 85 89
e 85 90
e 85 91
e 85 93
e 85 95
e 85 96
e 85 97
e 85 98
e 86 89
e 86 91
e 86 92
e 86 93
e 86 95
e 86 96
e 86 97
e 86 98
e 86 99
e 86 100
e 87 90
e 87 93
e 87 94
e 87 96
e 87 97
e 87 98
e 87 100
e 88 89
e 88 90
e 88 91
e 88 92
e 88 93
e 88 95
e 88 98
e 89 90
e 89 91
e 89 92
e 89 93
e 89 97
e 89 99
e 89 100
e 90 91
e 90 92
e 90 93
e 90 95
e 90 96
e 90 98
e 91 92
e 91 93
e 91 95
e 91 97
e 91 98
e 91 99
e 91 100
e 92 94
e 92 95
e 92 96
e 92 97
e 92 98
e 92 99
e 92 100
e 93 94
e 93 95
e 93 97
e 93 98
e 93 99
e 94 95
e 94 96
e 94 97
e 94 98
e 94 100
e 95 96
e 95 98
e 95 100
e 96 99
e 96 100
e 97 98
e 99 100
